! easymecp: max_steps=40
! easymecp: TDE=5.d-5
! easymecp: TDXMax=4.d-3
! easymecp: TDXRMS=2.5d-3
! easymecp: TGMax=7.d-4
! easymecp: TGRMS=5.d-4
%mem=6GB
%nproc=4
%chk=triplet.chk
#n B3LYP/6-31G** force guess(read)

Second State

1 3
   6    0.00000000    1.29415792    0.00000000
   6    1.26925621    0.69492101    0.00000000
   6    1.25333878   -0.68683411    0.00000000
   6    0.00000000   -1.37637278    0.00000000
   6   -1.25333878   -0.68683411    0.00000000
   6   -1.26925621    0.69492101    0.00000000
   1    2.18850378    1.27259801    0.00000000
   1    2.18245259   -1.24994510    0.00000000
   1    0.00000000   -2.46288976    0.00000000
   1   -2.18245259   -1.24994510    0.00000000
   1   -2.18850378    1.27259801    0.00000000



