! easymecp: max_steps=40
! easymecp: TDE=5.d-5
! easymecp: TDXMax=4.d-3
! easymecp: TDXRMS=2.5d-3
! easymecp: TGMax=7.d-4
! easymecp: TGRMS=5.d-4
%mem=6GB
%nproc=4
%chk=triplet.chk
#n B3LYP/6-31G** force guess(read)

Second State

1 3
   6    0.00000000    1.29400789    0.00000000
   6    1.26917553    0.69497453    0.00000000
   6    1.25327694   -0.68692447    0.00000000
   6    0.00000000   -1.37625003    0.00000000
   6   -1.25327694   -0.68692447    0.00000000
   6   -1.26917553    0.69497453    0.00000000
   1    2.18736140    1.27397585    0.00000000
   1    2.18156804   -1.25115210    0.00000000
   1    0.00000000   -2.46313047    0.00000000
   1   -2.18156804   -1.25115210    0.00000000
   1   -2.18736140    1.27397585    0.00000000



