! easymecp: max_steps=40
! easymecp: TDE=5.d-5
! easymecp: TDXMax=4.d-3
! easymecp: TDXRMS=2.5d-3
! easymecp: TGMax=7.d-4
! easymecp: TGRMS=5.d-4
%mem=6GB
%nproc=4
%chk=singlet.chk
#n B3LYP/6-31G** force guess(read)

First State

1 1
   6    0.00000000    1.31191545    0.00000000
   6    1.26707924    0.71792080    0.00000000
   6    1.23657483   -0.67248612    0.00000000
   6    0.00000000   -1.41889059    0.00000000
   6   -1.23657483   -0.67248612    0.00000000
   6   -1.26707924    0.71792080    0.00000000
   1    2.16069725    1.24455232    0.00000000
   1    2.15221313   -1.23688931    0.00000000
   1    0.00000000   -2.48284523    0.00000000
   1   -2.15221313   -1.23688931    0.00000000
   1   -2.16069725    1.24455232    0.00000000



