! easymecp: max_steps=40
! easymecp: TDE=5.d-5
! easymecp: TDXMax=4.d-3
! easymecp: TDXRMS=2.5d-3
! easymecp: TGMax=7.d-4
! easymecp: TGRMS=5.d-4
%mem=6GB
%nproc=4
%chk=singlet.chk
#n B3LYP/6-31G** force guess(read)

First State

1 1
   6    0.00000000    1.32080203    0.00000000
   6    1.21571696    0.67351355    0.00000000
   6    1.23476037   -0.68239826    0.00000000
   6    0.00000000   -1.34799976    0.00000000
   6   -1.23476037   -0.68239826    0.00000000
   6   -1.21571696    0.67351355    0.00000000
   1    2.20260803    1.27204766    0.00000000
   1    2.16382971   -1.23915630    0.00000000
   1    0.00000000   -2.50444057    0.00000000
   1   -2.16382971   -1.23915630    0.00000000
   1   -2.20260803    1.27204766    0.00000000



