! easymecp: max_steps=40
! easymecp: TDE=5.d-5
! easymecp: TDXMax=4.d-3
! easymecp: TDXRMS=2.5d-3
! easymecp: TGMax=7.d-4
! easymecp: TGRMS=5.d-4
%mem=6GB
%nproc=4
%chk=singlet.chk
#n B3LYP/6-31G** force guess(read)

First State

1 1
   6    0.00000000    1.31591060    0.00000000
   6    1.25373584    0.69889503    0.00000000
   6    1.23948582   -0.68789616    0.00000000
   6    0.00000000   -1.38666081    0.00000000
   6   -1.23948582   -0.68789616    0.00000000
   6   -1.25373584    0.69889503    0.00000000
   1    2.18767435    1.26380771    0.00000000
   1    2.16464215   -1.23925379    0.00000000
   1    0.00000000   -2.48398035    0.00000000
   1   -2.16464215   -1.23925379    0.00000000
   1   -2.18767435    1.26380771    0.00000000



