! easymecp: max_steps=40
! easymecp: TDE=5.d-5
! easymecp: TDXMax=4.d-3
! easymecp: TDXRMS=2.5d-3
! easymecp: TGMax=7.d-4
! easymecp: TGRMS=5.d-4
%mem=6GB
%nproc=4
%chk=singlet.chk
#n B3LYP/6-31G** force guess(read)

First State

1 1
   6    0.00000000    1.29599308    0.00000000
   6    1.26859383    0.69501674    0.00000000
   6    1.25241653   -0.68681702    0.00000000
   6    0.00000000   -1.37700643    0.00000000
   6   -1.25241653   -0.68681702    0.00000000
   6   -1.26859383    0.69501674    0.00000000
   1    2.18949490    1.27014535    0.00000000
   1    2.18168219   -1.24741104    0.00000000
   1    0.00000000   -2.46447972    0.00000000
   1   -2.18168219   -1.24741104    0.00000000
   1   -2.18949490    1.27014535    0.00000000



