%mem=6GB
%nproc=4
%chk=B.chk
#n B3LYP/genecp force guess(read)

Second State

1 6
