%mem=6GB
%nproc=4
%chk=A.chk
#n B3LYP/genecp force guess(read)

First State

1 4
