%mem=60GB
%nproc=16
%chk=B.chk
#n PBE1PBE/genecp force guess(read)

Second State

1 3
