%mem=60GB
%nproc=16
%chk=S1.chk
#n B3LYP/6-31G** TD force guess(read)

First State

1 1