%mem=6GB
%nproc=4
%chk=singlet.chk
#n hf/6-31G** force guess(read)

First State

1 1
