%mem=6GB
%nproc=4
%chk=triplet.chk
#n hf/6-31G** force guess(read)

Second State

1 3
