%mem=6GB
%nproc=4
%chk=triplet.chk
#n B3LYP/6-311G** force guess(read)

Second State

0 3
