%mem=6GB
%nproc=4
%chk=singlet.chk
#n B3LYP/6-311G** force guess(read)

First State

0 1
