%mem=6GB
%nproc=4
%chk=triplet.chk
#n B3LYP/6-31G** force 

Second State

1 3
 6                  0.00000000    1.39661300    0.00000000
 6                  1.20950300    0.69830700    0.00000000
 6                  1.20950300   -0.69830700    0.00000000
 6                  0.00000000   -1.39661300    0.00000000
 6                 -1.20950300   -0.69830700    0.00000000
 6                 -1.20950300    0.69830700    0.00000000
 1                  2.15088200    1.24181200    0.00000000
 1                  2.15088200   -1.24181200    0.00000000
 1                  0.00000000   -2.48362500    0.00000000
 1                 -2.15088200   -1.24181200    0.00000000
 1                 -2.15088200    1.24181200    0.00000000




