%mem=6GB
%nproc=4
%chk=triplet.chk
#n B3LYP/6-31G** force guess(read)

Second State

1 3
   6    0.00000000    1.29391339    0.00000000
   6    1.26895844    0.69494823    0.00000000
   6    1.25319154   -0.68705222    0.00000000
   6    0.00000000   -1.37644103    0.00000000
   6   -1.25319154   -0.68705222    0.00000000
   6   -1.26895844    0.69494823    0.00000000
   1    2.18619904    1.27555698    0.00000000
   1    2.18040598   -1.25239080    0.00000000
   1    0.00000000   -2.46322174    0.00000000
   1   -2.18040598   -1.25239080    0.00000000
   1   -2.18619904    1.27555698    0.00000000




