%mem=6GB
%nproc=4
%chk=triplet.chk
#n B3LYP/6-31G** force guess(read)

Second State

1 3
   6    0.00000000    1.32080203    0.00000000
   6    1.21571696    0.67351355    0.00000000
   6    1.23476037   -0.68239826    0.00000000
   6    0.00000000   -1.34799976    0.00000000
   6   -1.23476037   -0.68239826    0.00000000
   6   -1.21571696    0.67351355    0.00000000
   1    2.20260803    1.27204766    0.00000000
   1    2.16382971   -1.23915630    0.00000000
   1    0.00000000   -2.50444057    0.00000000
   1   -2.16382971   -1.23915630    0.00000000
   1   -2.20260803    1.27204766    0.00000000




