%mem=6GB
%nproc=4
%chk=triplet.chk
#n B3LYP/6-31G** force guess(read)

Second State

1 3
   6    0.00000000    1.31591060    0.00000000
   6    1.25373584    0.69889503    0.00000000
   6    1.23948582   -0.68789616    0.00000000
   6    0.00000000   -1.38666081    0.00000000
   6   -1.23948582   -0.68789616    0.00000000
   6   -1.25373584    0.69889503    0.00000000
   1    2.18767435    1.26380771    0.00000000
   1    2.16464215   -1.23925379    0.00000000
   1    0.00000000   -2.48398035    0.00000000
   1   -2.16464215   -1.23925379    0.00000000
   1   -2.18767435    1.26380771    0.00000000




