%mem=6GB
%nproc=4
%chk=triplet.chk
#n B3LYP/6-31G** force guess(read)

Second State

1 3
   6    0.00000000    1.30162652    0.00000000
   6    1.26563705    0.69808340    0.00000000
   6    1.24678039   -0.68433607    0.00000000
   6    0.00000000   -1.38439439    0.00000000
   6   -1.24678039   -0.68433607    0.00000000
   6   -1.26563705    0.69808340    0.00000000
   1    2.18650719    1.26459082    0.00000000
   1    2.17341058   -1.24248004    0.00000000
   1    0.00000000   -2.47257335    0.00000000
   1   -2.17341058   -1.24248004    0.00000000
   1   -2.18650719    1.26459082    0.00000000




