%mem=6GB
%nproc=4
%chk=triplet.chk
#n B3LYP/6-31G** force guess(read)

Second State

1 3
   6    0.00000000    1.30012010    0.00000000
   6    1.26592208    0.69613266    0.00000000
   6    1.24899944   -0.68626285    0.00000000
   6    0.00000000   -1.38081473    0.00000000
   6   -1.24899944   -0.68626285    0.00000000
   6   -1.26592208    0.69613266    0.00000000
   1    2.18883471    1.26757536    0.00000000
   1    2.17751256   -1.24466926    0.00000000
   1    0.00000000   -2.46848220    0.00000000
   1   -2.17751256   -1.24466926    0.00000000
   1   -2.18883471    1.26757536    0.00000000




