%mem=6GB
%nproc=4
%chk=triplet.chk
#n B3LYP/6-31G** force guess(read)

Second State

1 3
   6    0.00000000    1.29448256    0.00000000
   6    1.26876546    0.69492941    0.00000000
   6    1.25326473   -0.68664809    0.00000000
   6    0.00000000   -1.37715733    0.00000000
   6   -1.25326473   -0.68664809    0.00000000
   6   -1.26876546    0.69492941    0.00000000
   1    2.18932703    1.27148065    0.00000000
   1    2.18242230   -1.24876026    0.00000000
   1    0.00000000   -2.46295365    0.00000000
   1   -2.18242230   -1.24876026    0.00000000
   1   -2.18932703    1.27148065    0.00000000




